14,0	0,0	15,7	17,8	0,0	0,0	0,0	0,0	0,0	10,0
10,8	13,3	0,0	6,6	19,7	0,0	0,0	5,7	0,0	0,0
0,0	0,0	10,5	0,0	5,8	8,3	0,0	0,0	13,1	0,0
13,7	0,0	9,0	0,0	0,0	0,0	17,4	0,0	0,0	0,0
0,0	19,6	0,0	10,8	8,2	0,0	0,0	17,8	0,0	0,0
0,0	13,3	10,8	0,0	16,4	14,1	0,0	0,0	5,7	0,0
0,0	10,0	0,0	8,2	0,0	0,0	16,3	0,0	0,0	14,1
17,1	0,0	16,2	0,0	0,0	0,0	0,0	0,0	0,0	17,5
0,0	16,6	0,0	6,6	10,2	0,0	0,0	8,8	0,0	0,0
0,0	0,0	7,0	0,0	0,0	19,7	10,3	0,0	0,0	16,0
									
3,0	2,9	4,4	3,3	4,9	5,0	2,7	3,2	4,2	2,6
